Problem:    
Rows:       34
Columns:    83 (83 integer, 83 binary)
Non-zeros:  359
Status:     INTEGER OPTIMAL
Objective:  score = 10453 (MAXimum)

   No.   Row name        Activity     Lower bound   Upper bound
------ ------------    ------------- ------------- -------------
     1 index_0                     6             0               
     2 index_1                     2             0               
     3 index_2                     1             0               
     4 index_3                     0             0               
     5 index_4                     0             0               
     6 index_5                     0             0               
     7 index_6                     1             0               
     8 index_7                     0             0               
     9 index_8                     0             0               
    10 index_9                     1             0               
    11 index_10                    0             0               
    12 index_11                    1             0               
    13 index_12                    0             0               
    14 index_13                    0             0               
    15 index_14                    1             0               
    16 index_15                    0             0               
    17 index_16                    1             0               
    18 index_17                    0             0               
    19 index_18                    1             0               
    20 index_19                    2             0               
    21 index_20                    1             0               
    22 index_21                    0             0               
    23 index_22                    1             0               
    24 index_23                    0             0               
    25 index_24                    2             0               
    26 index_25                    0             0               
    27 index_26                    0             0               
    28 index_27                    5             0               
    29 index_28                    0             0               
    30 index_29                    1             0               
    31 index_30                    1             0               
    32 index_31                    1             0               
    33 index_32                    2             0               
    34 length                      7                        2000 

   No. Column name       Activity     Lower bound   Upper bound
------ ------------    ------------- ------------- -------------
     1 c0           *              1             0             1 
     2 c1           *              1             0             1 
     3 c2           *              1             0             1 
     4 c3           *              1             0             1 
     5 c4           *              1             0             1 
     6 c5           *              1             0             1 
     7 c6           *              1             0             1 
     8 c7           *              1             0             1 
     9 c8           *              1             0             1 
    10 c9           *              1             0             1 
    11 c10          *              1             0             1 
    12 c11          *              1             0             1 
    13 c12          *              1             0             1 
    14 c13          *              1             0             1 
    15 c14          *              1             0             1 
    16 c15          *              1             0             1 
    17 c16          *              1             0             1 
    18 c17          *              1             0             1 
    19 c18          *              1             0             1 
    20 c19          *              1             0             1 
    21 c20          *              1             0             1 
    22 c21          *              1             0             1 
    23 c22          *              1             0             1 
    24 c23          *              1             0             1 
    25 c24          *              1             0             1 
    26 c25          *              1             0             1 
    27 c26          *              1             0             1 
    28 c27          *              1             0             1 
    29 c28          *              1             0             1 
    30 c29          *              1             0             1 
    31 c30          *              1             0             1 
    32 c31          *              1             0             1 
    33 c32          *              1             0             1 
    34 s0           *              1             0             1 
    35 s1           *              0             0             1 
    36 s2           *              1             0             1 
    37 s3           *              0             0             1 
    38 s4           *              0             0             1 
    39 s5           *              0             0             1 
    40 s6           *              0             0             1 
    41 s7           *              1             0             1 
    42 s8           *              0             0             1 
    43 s9           *              0             0             1 
    44 s10          *              0             0             1 
    45 s11          *              0             0             1 
    46 s12          *              0             0             1 
    47 s13          *              0             0             1 
    48 s14          *              0             0             1 
    49 s15          *              1             0             1 
    50 s16          *              0             0             1 
    51 s17          *              0             0             1 
    52 s18          *              0             0             1 
    53 s19          *              0             0             1 
    54 s20          *              0             0             1 
    55 s21          *              0             0             1 
    56 s22          *              0             0             1 
    57 s23          *              0             0             1 
    58 s24          *              0             0             1 
    59 s25          *              0             0             1 
    60 s27          *              1             0             1 
    61 s29          *              0             0             1 
    62 s30          *              0             0             1 
    63 s31          *              0             0             1 
    64 s32          *              0             0             1 
    65 s33          *              0             0             1 
    66 s34          *              1             0             1 
    67 s35          *              0             0             1 
    68 s36          *              0             0             1 
    69 s37          *              0             0             1 
    70 s38          *              0             0             1 
    71 s39          *              0             0             1 
    72 s40          *              0             0             1 
    73 s41          *              0             0             1 
    74 s42          *              0             0             1 
    75 s43          *              0             0             1 
    76 s44          *              1             0             1 
    77 s45          *              0             0             1 
    78 s46          *              0             0             1 
    79 s47          *              0             0             1 
    80 s48          *              0             0             1 
    81 s49          *              0             0             1 
    82 s26          *              0             0             1 
    83 s28          *              0             0             1 

Integer feasibility conditions:

KKT.PE: max.abs.err = 0.00e+00 on row 0
        max.rel.err = 0.00e+00 on row 0
        High quality

KKT.PB: max.abs.err = 0.00e+00 on row 0
        max.rel.err = 0.00e+00 on row 0
        High quality

End of output
